3523596
48,74,25,37,36,44,100,81,34,0,4,73,40,30,56,71,103,65,88,99,3,60,84,94,78,43,42,82,108,8,97,80,58,50,93,1,106,83,15,24,45,2,19,22,14,66,23,102,29,31,5,33,28,51,62,91,55,20,61,18,92,95,105,32,12,79,47,10,90,63,53,101,52,38,13,64,35,96,86,72,6,67,54,39,27,11,107,77,59,87,17,69,68,26,85,7,70,41,49,75,98,46,104,16,21,76,89,9,57
